0 26 48 93 95 89 62 70 12 61 18 100 59
26 0 97 99 84 62 100 67 25 94 30 98 1
48 97 0 74 5 100 41 15 20 56 22 72 49
93 99 74 0 65 8 14 24 21 81 31 49 85
95 84 5 65 0 30 11 61 98 41 97 33 69
89 62 100 8 30 0 16 62 27 84 5 18 57
62 100 41 14 11 16 0 47 42 80 81 79 20
70 67 15 24 61 62 47 0 45 59 8 16 8
12 25 20 21 98 27 42 45 0 71 20 52 75
61 94 56 81 41 84 80 59 71 0 75 89 94
18 30 22 31 97 5 81 8 20 75 0 49 91
100 98 72 49 33 18 79 16 52 89 49 0 23
59 1 49 85 69 57 20 8 75 94 91 23 0
